job_count = 12 ;
duration = [|18, 4|15, 1|3, 2|3, 2|13, 1|17, 9|11, 3|16, 5|3, 2|15, 1|19, 5|18, 6|] ;
machine_count = 2 ;
cost = [|16, 27|15, 21|13, 25|19, 31|19, 30|13, 34|10, 37|11, 23|14, 22|14, 33|16, 33|12, 34|] ;
deadline = [30, 30, 30, 30, 30, 30, 30, 30, 30, 30, 30, 30] ;
release = [0, 0, 0, 0, 0, 0, 0, 0, 0, 0, 0, 0] ;
resource = [|2, 2|3, 3|1, 1|1, 1|8, 8|1, 1|7, 7|5, 5|8, 8|8, 8|6, 6|5, 5|] ;
capacities = [10, 10] ;
